unsat
(:max-memory         18.42
 :memory             18.32
 :nlsat-arith-var    4
 :nlsat-atoms        16
 :nlsat-bool-var     1
 :nlsat-clauses      15
 :nlsat-conflicts    4
 :nlsat-propagations 19
 :nlsat-stages       4
 :num-allocs         50279
 :rlimit-count       1547
 :time               0.00
 :total-time         0.01)
